0 93 
1 95 
2 98 
3 99 
4 102 
5 100 
6 101 
7 106 
8 104 
9 108 
10 105 
11 106 
12 106 
13 103 
14 102 
15 96 
16 94 
17 94 
18 91 
19 89 
20 87 
21 83 
22 80 
23 74 
24 68 
25 65 
26 66 
27 62 
28 59 
29 61 
30 57 
31 56 
32 57 
33 55 
34 51 
35 50 
36 46 
37 45 
38 45 
39 43 
40 41 
41 40 
42 42 
43 45 
44 44 
45 42 
46 40 
47 39 
48 37 
49 38 
50 37 
51 37 
52 35 
53 33 
54 34 
55 33 
56 31 
57 33 
58 33 
59 34 
60 31 
61 31 
62 29 
63 28 
64 26 
65 25 
66 22 
67 19 
68 18 
69 17 
70 17 
71 15 
72 17 
73 13 
74 10 
75 9 
76 7 
77 6 
78 4 
79 3 
80 3 
81 3 
82 3 
83 3 
84 3 
85 3 
86 2 
87 1 
88 0 
89 0 
90 0 
91 0 

